File: D:\ML4VRP2024\Instances\CVRP\json\X-n115-k10.json exists.
Route #1: 46 64 85 74 1 90 40 67 43 14 68 
Route #2: 104 41 91 2 25 51 22 96 19 16 
Route #3: 15 32 89 17 66 106 3 73 87 86 60 48 
Route #4: 59 42 95 107 35 99 4 
Route #5: 5 108 6 
Route #6: 26 72 102 24 98 7 63 34 71 37 39 76 55 80 
Route #7: 52 21 82 88 110 111 112 105 27 44 30 114 75 83 84 8 
Route #8: 50 29 53 78 28 100 57 92 62 54 9 94 20 101 
Route #9: 10 93 18 109 47 79 49 
Route #10: 13 70 36 56 31 11 81 33 61 103 69 97 38 77 58 
Route #11: 23 65 113 45 12 
